100
150
100
100
99
98
97
96
94
93
92
91
90
89
89
87
87
85
85
85
84
84
84
83
83
83
83
83
81
81
80
80
79
79
79
78
78
77
76
75
74
74
74
73
73
71
71
71
71
70
69
69
68
68
68
66
66
65
64
63
63
63
62
61
59
58
58
57
56
56
56
56
55
52
50
49
47
46
46
45
45
43
43
43
42
42
41
41
38
37
37
36
36
35
35
34
34
34
33
31
31
30
